(declare-const p990 Real)
(declare-const fee_bl Real)
(declare-const income Real)
(declare-const p675 Real)
(declare-const p875 Real)
(declare-const p475 Real)
(assert (= p475 (* 0.0475 (ite (> income 4400) 4400 income))))
(assert (= p675 (ite (> income 4400) (* 0.0675 (- (ite (> income 11050) 11050 income) 4400)) 0)))
(assert (= p875 (ite (> income 11050) (* 0.0875 (- (ite (> income 125000) 125000 income) 11050)) 0)))
(assert (= p990 (ite (> income 125000) (* 0.0990 (- income 125000)) 0)))
(assert (= fee_bl (+ (+ (+ p475 p675) p875) p990)))